c Reduced graph for zeroin.i.2 generated by Cyril Grelier
p edge 100 2129
e 1 2
e 1 3
e 1 4
e 1 5
e 1 7
e 1 8
e 1 10
e 1 11
e 1 12
e 1 13
e 1 14
e 1 15
e 1 16
e 1 17
e 1 18
e 1 19
e 1 20
e 1 22
e 1 23
e 1 24
e 1 25
e 1 26
e 1 27
e 1 28
e 1 29
e 1 31
e 1 32
e 1 35
e 1 36
e 1 37
e 1 38
e 1 39
e 1 40
e 1 41
e 1 42
e 1 46
e 1 47
e 1 48
e 1 50
e 1 51
e 1 52
e 1 53
e 1 54
e 1 55
e 1 56
e 1 57
e 1 58
e 1 59
e 1 60
e 1 61
e 1 62
e 1 64
e 1 66
e 1 67
e 1 68
e 1 69
e 1 70
e 1 71
e 1 72
e 1 73
e 1 74
e 1 76
e 1 77
e 1 78
e 1 80
e 1 81
e 1 83
e 1 84
e 1 85
e 1 86
e 1 87
e 1 88
e 1 89
e 1 90
e 1 91
e 1 92
e 1 93
e 1 94
e 1 95
e 1 96
e 1 97
e 1 98
e 1 99
e 2 3
e 2 6
e 2 7
e 2 8
e 2 15
e 2 16
e 2 19
e 2 20
e 2 26
e 2 32
e 2 41
e 2 42
e 2 46
e 2 47
e 2 48
e 2 51
e 2 52
e 2 53
e 2 56
e 2 57
e 2 58
e 2 59
e 2 60
e 2 63
e 2 64
e 2 69
e 2 70
e 2 77
e 2 81
e 2 86
e 2 89
e 2 90
e 2 95
e 2 96
e 2 99
e 3 6
e 3 7
e 3 8
e 3 15
e 3 19
e 3 20
e 3 32
e 3 41
e 3 42
e 3 47
e 3 48
e 3 51
e 3 52
e 3 56
e 3 57
e 3 58
e 3 59
e 3 60
e 3 63
e 3 64
e 3 77
e 3 81
e 3 86
e 3 89
e 3 90
e 3 95
e 3 96
e 3 99
e 4 6
e 4 8
e 4 9
e 4 21
e 4 30
e 4 32
e 4 33
e 4 34
e 4 41
e 4 43
e 4 44
e 4 45
e 4 47
e 4 49
e 4 51
e 4 52
e 4 56
e 4 57
e 4 63
e 4 64
e 4 65
e 4 75
e 4 77
e 4 79
e 4 82
e 4 99
e 4 100
e 5 6
e 5 7
e 5 8
e 5 15
e 5 16
e 5 17
e 5 19
e 5 20
e 5 28
e 5 32
e 5 41
e 5 42
e 5 47
e 5 48
e 5 51
e 5 52
e 5 56
e 5 57
e 5 58
e 5 59
e 5 60
e 5 63
e 5 64
e 5 77
e 5 89
e 5 99
e 6 9
e 6 10
e 6 11
e 6 12
e 6 13
e 6 14
e 6 15
e 6 16
e 6 17
e 6 18
e 6 20
e 6 21
e 6 22
e 6 23
e 6 24
e 6 25
e 6 26
e 6 27
e 6 28
e 6 29
e 6 30
e 6 31
e 6 33
e 6 34
e 6 35
e 6 36
e 6 37
e 6 38
e 6 39
e 6 40
e 6 42
e 6 43
e 6 44
e 6 45
e 6 46
e 6 49
e 6 50
e 6 53
e 6 54
e 6 55
e 6 58
e 6 60
e 6 61
e 6 62
e 6 63
e 6 65
e 6 66
e 6 67
e 6 68
e 6 69
e 6 70
e 6 71
e 6 72
e 6 73
e 6 74
e 6 75
e 6 76
e 6 78
e 6 79
e 6 80
e 6 81
e 6 82
e 6 83
e 6 84
e 6 85
e 6 86
e 6 87
e 6 88
e 6 89
e 6 90
e 6 91
e 6 92
e 6 93
e 6 94
e 6 95
e 6 96
e 6 97
e 6 98
e 6 100
e 7 8
e 7 10
e 7 11
e 7 12
e 7 13
e 7 14
e 7 15
e 7 16
e 7 17
e 7 18
e 7 19
e 7 20
e 7 22
e 7 23
e 7 24
e 7 25
e 7 26
e 7 27
e 7 28
e 7 29
e 7 31
e 7 32
e 7 35
e 7 36
e 7 37
e 7 38
e 7 39
e 7 40
e 7 41
e 7 42
e 7 46
e 7 47
e 7 48
e 7 50
e 7 51
e 7 52
e 7 53
e 7 54
e 7 55
e 7 56
e 7 57
e 7 58
e 7 59
e 7 60
e 7 61
e 7 62
e 7 64
e 7 66
e 7 68
e 7 69
e 7 70
e 7 72
e 7 73
e 7 77
e 7 78
e 7 80
e 7 81
e 7 83
e 7 86
e 7 87
e 7 88
e 7 89
e 7 90
e 7 91
e 7 92
e 7 93
e 7 94
e 7 95
e 7 96
e 7 97
e 7 98
e 7 99
e 8 10
e 8 11
e 8 12
e 8 13
e 8 14
e 8 15
e 8 16
e 8 17
e 8 18
e 8 19
e 8 20
e 8 22
e 8 23
e 8 24
e 8 25
e 8 26
e 8 27
e 8 28
e 8 29
e 8 31
e 8 32
e 8 35
e 8 36
e 8 38
e 8 39
e 8 40
e 8 41
e 8 42
e 8 46
e 8 47
e 8 48
e 8 50
e 8 51
e 8 52
e 8 53
e 8 55
e 8 56
e 8 57
e 8 58
e 8 59
e 8 60
e 8 61
e 8 62
e 8 64
e 8 66
e 8 67
e 8 68
e 8 69
e 8 70
e 8 71
e 8 72
e 8 73
e 8 74
e 8 77
e 8 81
e 8 83
e 8 84
e 8 86
e 8 88
e 8 89
e 8 90
e 8 91
e 8 93
e 8 94
e 8 95
e 8 96
e 8 97
e 8 99
e 9 21
e 9 30
e 9 31
e 9 33
e 9 34
e 9 35
e 9 37
e 9 43
e 9 44
e 9 45
e 9 49
e 9 54
e 9 63
e 9 65
e 9 67
e 9 71
e 9 73
e 9 74
e 9 75
e 9 76
e 9 78
e 9 79
e 9 80
e 9 82
e 9 84
e 9 85
e 9 87
e 9 92
e 9 98
e 9 100
e 10 15
e 10 19
e 10 20
e 10 27
e 10 32
e 10 36
e 10 41
e 10 42
e 10 47
e 10 48
e 10 51
e 10 52
e 10 56
e 10 57
e 10 58
e 10 59
e 10 60
e 10 63
e 10 64
e 10 77
e 10 89
e 10 90
e 10 95
e 10 97
e 10 99
e 11 15
e 11 16
e 11 17
e 11 19
e 11 20
e 11 32
e 11 41
e 11 42
e 11 47
e 11 48
e 11 51
e 11 52
e 11 56
e 11 57
e 11 58
e 11 59
e 11 60
e 11 63
e 11 64
e 11 77
e 11 89
e 11 90
e 11 95
e 11 99
e 12 13
e 12 15
e 12 19
e 12 20
e 12 25
e 12 32
e 12 41
e 12 42
e 12 47
e 12 48
e 12 51
e 12 52
e 12 56
e 12 57
e 12 58
e 12 59
e 12 60
e 12 63
e 12 64
e 12 77
e 12 89
e 12 90
e 12 95
e 12 99
e 13 15
e 13 19
e 13 20
e 13 25
e 13 32
e 13 41
e 13 42
e 13 47
e 13 48
e 13 51
e 13 52
e 13 56
e 13 57
e 13 58
e 13 59
e 13 60
e 13 63
e 13 64
e 13 77
e 13 89
e 13 90
e 13 95
e 13 99
e 14 18
e 14 19
e 14 29
e 14 32
e 14 33
e 14 35
e 14 41
e 14 47
e 14 48
e 14 51
e 14 52
e 14 56
e 14 57
e 14 58
e 14 59
e 14 63
e 14 64
e 14 66
e 14 73
e 14 77
e 14 83
e 14 91
e 14 93
e 14 99
e 15 16
e 15 17
e 15 19
e 15 20
e 15 22
e 15 23
e 15 24
e 15 25
e 15 26
e 15 27
e 15 28
e 15 32
e 15 36
e 15 38
e 15 39
e 15 40
e 15 41
e 15 42
e 15 43
e 15 44
e 15 45
e 15 46
e 15 47
e 15 48
e 15 50
e 15 51
e 15 52
e 15 53
e 15 55
e 15 56
e 15 57
e 15 58
e 15 59
e 15 60
e 15 61
e 15 62
e 15 63
e 15 64
e 15 68
e 15 69
e 15 70
e 15 72
e 15 77
e 15 79
e 15 81
e 15 86
e 15 88
e 15 89
e 15 90
e 15 94
e 15 95
e 15 96
e 15 97
e 15 99
e 15 100
e 16 17
e 16 19
e 16 20
e 16 22
e 16 24
e 16 28
e 16 32
e 16 38
e 16 41
e 16 42
e 16 43
e 16 44
e 16 45
e 16 47
e 16 48
e 16 50
e 16 51
e 16 52
e 16 55
e 16 56
e 16 57
e 16 58
e 16 59
e 16 60
e 16 62
e 16 63
e 16 64
e 16 72
e 16 77
e 16 79
e 16 81
e 16 86
e 16 89
e 16 90
e 16 94
e 16 95
e 16 99
e 16 100
e 17 19
e 17 20
e 17 22
e 17 24
e 17 28
e 17 32
e 17 38
e 17 41
e 17 42
e 17 43
e 17 44
e 17 45
e 17 47
e 17 48
e 17 50
e 17 51
e 17 52
e 17 55
e 17 56
e 17 57
e 17 58
e 17 59
e 17 60
e 17 62
e 17 63
e 17 64
e 17 72
e 17 77
e 17 79
e 17 89
e 17 90
e 17 94
e 17 95
e 17 99
e 17 100
e 18 19
e 18 29
e 18 32
e 18 33
e 18 34
e 18 35
e 18 41
e 18 47
e 18 48
e 18 51
e 18 52
e 18 56
e 18 57
e 18 58
e 18 59
e 18 63
e 18 64
e 18 66
e 18 73
e 18 77
e 18 83
e 18 91
e 18 93
e 18 99
e 19 20
e 19 22
e 19 23
e 19 24
e 19 25
e 19 26
e 19 27
e 19 28
e 19 29
e 19 31
e 19 32
e 19 35
e 19 36
e 19 38
e 19 39
e 19 40
e 19 41
e 19 42
e 19 46
e 19 47
e 19 48
e 19 50
e 19 51
e 19 52
e 19 53
e 19 55
e 19 56
e 19 57
e 19 58
e 19 59
e 19 60
e 19 61
e 19 62
e 19 64
e 19 66
e 19 68
e 19 69
e 19 70
e 19 72
e 19 73
e 19 77
e 19 81
e 19 83
e 19 86
e 19 88
e 19 89
e 19 90
e 19 91
e 19 93
e 19 94
e 19 95
e 19 96
e 19 97
e 19 99
e 20 22
e 20 23
e 20 24
e 20 25
e 20 26
e 20 27
e 20 28
e 20 32
e 20 36
e 20 38
e 20 39
e 20 40
e 20 41
e 20 42
e 20 46
e 20 47
e 20 48
e 20 50
e 20 51
e 20 52
e 20 53
e 20 55
e 20 56
e 20 57
e 20 58
e 20 59
e 20 60
e 20 61
e 20 62
e 20 63
e 20 64
e 20 68
e 20 69
e 20 70
e 20 72
e 20 77
e 20 81
e 20 86
e 20 88
e 20 89
e 20 90
e 20 94
e 20 95
e 20 96
e 20 97
e 20 99
e 21 30
e 21 31
e 21 33
e 21 34
e 21 35
e 21 37
e 21 43
e 21 44
e 21 45
e 21 49
e 21 54
e 21 63
e 21 65
e 21 66
e 21 67
e 21 71
e 21 73
e 21 74
e 21 75
e 21 76
e 21 78
e 21 79
e 21 80
e 21 82
e 21 83
e 21 84
e 21 85
e 21 87
e 21 91
e 21 92
e 21 98
e 21 100
e 22 32
e 22 38
e 22 41
e 22 42
e 22 47
e 22 48
e 22 51
e 22 52
e 22 55
e 22 56
e 22 57
e 22 58
e 22 59
e 22 60
e 22 63
e 22 64
e 22 72
e 22 77
e 22 89
e 22 99
e 23 25
e 23 32
e 23 40
e 23 41
e 23 42
e 23 47
e 23 48
e 23 51
e 23 52
e 23 56
e 23 57
e 23 58
e 23 59
e 23 60
e 23 63
e 23 64
e 23 77
e 23 89
e 23 90
e 23 95
e 23 96
e 23 99
e 24 32
e 24 41
e 24 42
e 24 47
e 24 48
e 24 51
e 24 52
e 24 56
e 24 57
e 24 58
e 24 59
e 24 60
e 24 62
e 24 63
e 24 64
e 24 77
e 24 89
e 24 99
e 25 26
e 25 32
e 25 39
e 25 40
e 25 41
e 25 42
e 25 47
e 25 48
e 25 51
e 25 52
e 25 56
e 25 57
e 25 58
e 25 59
e 25 60
e 25 63
e 25 64
e 25 68
e 25 77
e 25 86
e 25 89
e 25 90
e 25 95
e 25 96
e 25 97
e 25 99
e 26 32
e 26 39
e 26 41
e 26 42
e 26 46
e 26 47
e 26 48
e 26 51
e 26 52
e 26 56
e 26 57
e 26 58
e 26 59
e 26 60
e 26 63
e 26 64
e 26 68
e 26 77
e 26 86
e 26 89
e 26 90
e 26 95
e 26 96
e 26 99
e 27 32
e 27 36
e 27 41
e 27 42
e 27 47
e 27 48
e 27 51
e 27 52
e 27 56
e 27 57
e 27 58
e 27 59
e 27 60
e 27 61
e 27 63
e 27 64
e 27 77
e 27 88
e 27 89
e 27 90
e 27 95
e 27 97
e 27 99
e 28 32
e 28 41
e 28 42
e 28 47
e 28 48
e 28 51
e 28 52
e 28 56
e 28 57
e 28 58
e 28 59
e 28 60
e 28 63
e 28 64
e 28 77
e 28 89
e 28 99
e 29 32
e 29 35
e 29 41
e 29 47
e 29 48
e 29 51
e 29 52
e 29 56
e 29 57
e 29 58
e 29 59
e 29 63
e 29 64
e 29 66
e 29 73
e 29 77
e 29 83
e 29 91
e 29 93
e 29 99
e 30 31
e 30 33
e 30 34
e 30 35
e 30 37
e 30 43
e 30 44
e 30 45
e 30 49
e 30 54
e 30 63
e 30 65
e 30 67
e 30 71
e 30 73
e 30 74
e 30 75
e 30 76
e 30 78
e 30 79
e 30 80
e 30 82
e 30 83
e 30 84
e 30 85
e 30 87
e 30 92
e 30 98
e 30 100
e 31 32
e 31 33
e 31 34
e 31 41
e 31 47
e 31 48
e 31 49
e 31 51
e 31 52
e 31 56
e 31 57
e 31 59
e 31 64
e 31 65
e 31 77
e 31 82
e 31 99
e 32 35
e 32 36
e 32 37
e 32 38
e 32 39
e 32 40
e 32 41
e 32 42
e 32 46
e 32 47
e 32 48
e 32 50
e 32 51
e 32 52
e 32 53
e 32 54
e 32 55
e 32 56
e 32 57
e 32 58
e 32 59
e 32 60
e 32 61
e 32 62
e 32 64
e 32 66
e 32 67
e 32 68
e 32 69
e 32 70
e 32 72
e 32 73
e 32 77
e 32 78
e 32 80
e 32 81
e 32 83
e 32 86
e 32 87
e 32 88
e 32 89
e 32 90
e 32 91
e 32 92
e 32 93
e 32 94
e 32 95
e 32 96
e 32 97
e 32 98
e 32 99
e 33 34
e 33 35
e 33 37
e 33 43
e 33 44
e 33 45
e 33 49
e 33 54
e 33 63
e 33 65
e 33 66
e 33 67
e 33 71
e 33 73
e 33 74
e 33 75
e 33 76
e 33 78
e 33 79
e 33 80
e 33 82
e 33 83
e 33 84
e 33 85
e 33 87
e 33 91
e 33 92
e 33 93
e 33 98
e 33 100
e 34 35
e 34 37
e 34 43
e 34 44
e 34 45
e 34 49
e 34 54
e 34 63
e 34 65
e 34 66
e 34 67
e 34 71
e 34 73
e 34 74
e 34 75
e 34 76
e 34 78
e 34 79
e 34 80
e 34 82
e 34 83
e 34 84
e 34 85
e 34 87
e 34 91
e 34 92
e 34 93
e 34 98
e 34 100
e 35 41
e 35 47
e 35 48
e 35 51
e 35 52
e 35 56
e 35 57
e 35 58
e 35 59
e 35 63
e 35 64
e 35 65
e 35 66
e 35 73
e 35 77
e 35 82
e 35 83
e 35 91
e 35 93
e 35 99
e 36 41
e 36 42
e 36 47
e 36 48
e 36 51
e 36 52
e 36 56
e 36 57
e 36 58
e 36 59
e 36 60
e 36 61
e 36 63
e 36 64
e 36 77
e 36 88
e 36 89
e 36 90
e 36 95
e 36 97
e 36 99
e 37 41
e 37 43
e 37 44
e 37 45
e 37 47
e 37 49
e 37 51
e 37 54
e 37 56
e 37 63
e 37 64
e 37 65
e 37 75
e 37 78
e 37 79
e 37 80
e 37 82
e 37 87
e 37 92
e 37 98
e 37 99
e 37 100
e 38 41
e 38 42
e 38 47
e 38 48
e 38 51
e 38 52
e 38 55
e 38 56
e 38 57
e 38 58
e 38 59
e 38 60
e 38 63
e 38 64
e 38 72
e 38 77
e 38 89
e 38 95
e 38 99
e 39 41
e 39 42
e 39 47
e 39 48
e 39 51
e 39 52
e 39 56
e 39 57
e 39 58
e 39 59
e 39 60
e 39 63
e 39 64
e 39 77
e 39 89
e 39 90
e 39 95
e 39 96
e 39 99
e 40 41
e 40 42
e 40 47
e 40 48
e 40 51
e 40 52
e 40 56
e 40 57
e 40 58
e 40 59
e 40 60
e 40 63
e 40 64
e 40 77
e 40 89
e 40 90
e 40 95
e 40 99
e 41 42
e 41 46
e 41 47
e 41 48
e 41 50
e 41 51
e 41 52
e 41 53
e 41 54
e 41 55
e 41 56
e 41 57
e 41 58
e 41 59
e 41 60
e 41 61
e 41 62
e 41 64
e 41 66
e 41 67
e 41 68
e 41 69
e 41 70
e 41 72
e 41 73
e 41 77
e 41 78
e 41 80
e 41 81
e 41 83
e 41 86
e 41 87
e 41 88
e 41 89
e 41 90
e 41 91
e 41 92
e 41 93
e 41 94
e 41 95
e 41 96
e 41 97
e 41 98
e 41 99
e 42 43
e 42 44
e 42 45
e 42 46
e 42 47
e 42 48
e 42 50
e 42 51
e 42 52
e 42 53
e 42 55
e 42 56
e 42 57
e 42 58
e 42 59
e 42 60
e 42 61
e 42 62
e 42 63
e 42 64
e 42 68
e 42 69
e 42 70
e 42 72
e 42 77
e 42 79
e 42 81
e 42 86
e 42 88
e 42 89
e 42 90
e 42 94
e 42 95
e 42 96
e 42 97
e 42 99
e 42 100
e 43 44
e 43 45
e 43 49
e 43 54
e 43 58
e 43 60
e 43 63
e 43 65
e 43 67
e 43 71
e 43 74
e 43 75
e 43 76
e 43 78
e 43 79
e 43 80
e 43 82
e 43 84
e 43 85
e 43 87
e 43 89
e 43 92
e 43 98
e 43 100
e 44 45
e 44 49
e 44 54
e 44 58
e 44 60
e 44 63
e 44 65
e 44 67
e 44 71
e 44 74
e 44 75
e 44 76
e 44 78
e 44 79
e 44 80
e 44 82
e 44 84
e 44 85
e 44 87
e 44 89
e 44 92
e 44 98
e 44 100
e 45 49
e 45 54
e 45 58
e 45 60
e 45 63
e 45 65
e 45 67
e 45 71
e 45 74
e 45 75
e 45 76
e 45 78
e 45 79
e 45 80
e 45 82
e 45 84
e 45 85
e 45 87
e 45 89
e 45 92
e 45 98
e 45 100
e 46 47
e 46 48
e 46 51
e 46 52
e 46 53
e 46 56
e 46 57
e 46 58
e 46 59
e 46 60
e 46 63
e 46 64
e 46 77
e 46 81
e 46 86
e 46 89
e 46 90
e 46 95
e 46 96
e 46 99
e 47 48
e 47 50
e 47 51
e 47 52
e 47 53
e 47 54
e 47 55
e 47 56
e 47 57
e 47 58
e 47 59
e 47 60
e 47 61
e 47 62
e 47 64
e 47 66
e 47 67
e 47 68
e 47 69
e 47 70
e 47 71
e 47 72
e 47 73
e 47 74
e 47 76
e 47 77
e 47 78
e 47 80
e 47 81
e 47 83
e 47 84
e 47 85
e 47 86
e 47 87
e 47 88
e 47 89
e 47 90
e 47 91
e 47 92
e 47 93
e 47 94
e 47 95
e 47 96
e 47 97
e 47 98
e 47 99
e 48 50
e 48 51
e 48 52
e 48 53
e 48 55
e 48 56
e 48 57
e 48 58
e 48 59
e 48 60
e 48 61
e 48 62
e 48 64
e 48 66
e 48 67
e 48 68
e 48 69
e 48 70
e 48 72
e 48 73
e 48 77
e 48 81
e 48 83
e 48 84
e 48 86
e 48 88
e 48 89
e 48 90
e 48 91
e 48 93
e 48 94
e 48 95
e 48 96
e 48 97
e 48 99
e 49 54
e 49 63
e 49 65
e 49 67
e 49 71
e 49 73
e 49 74
e 49 75
e 49 76
e 49 78
e 49 79
e 49 80
e 49 82
e 49 84
e 49 85
e 49 87
e 49 92
e 49 98
e 49 100
e 50 51
e 50 52
e 50 56
e 50 57
e 50 58
e 50 59
e 50 60
e 50 63
e 50 64
e 50 77
e 50 89
e 50 90
e 50 94
e 50 95
e 50 99
e 51 52
e 51 53
e 51 54
e 51 55
e 51 56
e 51 57
e 51 58
e 51 59
e 51 60
e 51 61
e 51 62
e 51 64
e 51 66
e 51 67
e 51 68
e 51 69
e 51 70
e 51 72
e 51 73
e 51 77
e 51 78
e 51 80
e 51 81
e 51 83
e 51 86
e 51 87
e 51 88
e 51 89
e 51 90
e 51 91
e 51 92
e 51 93
e 51 94
e 51 95
e 51 96
e 51 97
e 51 98
e 51 99
e 52 53
e 52 55
e 52 56
e 52 57
e 52 58
e 52 59
e 52 60
e 52 61
e 52 62
e 52 64
e 52 66
e 52 67
e 52 68
e 52 69
e 52 70
e 52 71
e 52 72
e 52 73
e 52 74
e 52 76
e 52 77
e 52 78
e 52 81
e 52 83
e 52 84
e 52 85
e 52 86
e 52 88
e 52 89
e 52 90
e 52 91
e 52 93
e 52 94
e 52 95
e 52 96
e 52 97
e 52 99
e 53 56
e 53 57
e 53 58
e 53 59
e 53 60
e 53 63
e 53 64
e 53 77
e 53 81
e 53 86
e 53 89
e 53 90
e 53 95
e 53 96
e 53 99
e 54 56
e 54 63
e 54 64
e 54 65
e 54 75
e 54 78
e 54 79
e 54 80
e 54 82
e 54 87
e 54 92
e 54 98
e 54 99
e 54 100
e 55 56
e 55 57
e 55 58
e 55 59
e 55 60
e 55 63
e 55 64
e 55 72
e 55 77
e 55 89
e 55 99
e 56 57
e 56 58
e 56 59
e 56 60
e 56 61
e 56 62
e 56 64
e 56 66
e 56 67
e 56 68
e 56 69
e 56 70
e 56 72
e 56 73
e 56 77
e 56 78
e 56 80
e 56 81
e 56 83
e 56 86
e 56 87
e 56 88
e 56 89
e 56 90
e 56 91
e 56 92
e 56 93
e 56 94
e 56 95
e 56 96
e 56 97
e 56 98
e 56 99
e 57 58
e 57 59
e 57 60
e 57 61
e 57 62
e 57 64
e 57 66
e 57 67
e 57 68
e 57 69
e 57 70
e 57 71
e 57 72
e 57 73
e 57 74
e 57 76
e 57 77
e 57 81
e 57 83
e 57 84
e 57 85
e 57 86
e 57 88
e 57 89
e 57 90
e 57 91
e 57 93
e 57 94
e 57 95
e 57 96
e 57 97
e 57 99
e 58 59
e 58 60
e 58 61
e 58 62
e 58 63
e 58 64
e 58 66
e 58 68
e 58 69
e 58 70
e 58 72
e 58 73
e 58 77
e 58 79
e 58 81
e 58 83
e 58 86
e 58 88
e 58 89
e 58 90
e 58 91
e 58 93
e 58 94
e 58 95
e 58 96
e 58 97
e 58 99
e 58 100
e 59 60
e 59 61
e 59 62
e 59 64
e 59 66
e 59 67
e 59 68
e 59 69
e 59 70
e 59 71
e 59 72
e 59 73
e 59 77
e 59 81
e 59 83
e 59 84
e 59 86
e 59 88
e 59 89
e 59 90
e 59 91
e 59 93
e 59 94
e 59 95
e 59 96
e 59 97
e 59 99
e 60 61
e 60 62
e 60 63
e 60 64
e 60 68
e 60 69
e 60 70
e 60 72
e 60 77
e 60 79
e 60 81
e 60 86
e 60 88
e 60 89
e 60 90
e 60 94
e 60 95
e 60 96
e 60 97
e 60 99
e 60 100
e 61 63
e 61 64
e 61 77
e 61 88
e 61 89
e 61 90
e 61 95
e 61 97
e 61 99
e 62 63
e 62 64
e 62 77
e 62 89
e 62 99
e 63 65
e 63 66
e 63 67
e 63 68
e 63 69
e 63 70
e 63 71
e 63 72
e 63 73
e 63 74
e 63 75
e 63 76
e 63 78
e 63 79
e 63 80
e 63 81
e 63 82
e 63 83
e 63 84
e 63 85
e 63 86
e 63 87
e 63 88
e 63 89
e 63 90
e 63 91
e 63 92
e 63 93
e 63 94
e 63 95
e 63 96
e 63 97
e 63 98
e 63 100
e 64 66
e 64 67
e 64 68
e 64 69
e 64 70
e 64 72
e 64 73
e 64 77
e 64 78
e 64 80
e 64 81
e 64 83
e 64 86
e 64 87
e 64 88
e 64 89
e 64 90
e 64 91
e 64 92
e 64 93
e 64 94
e 64 95
e 64 96
e 64 97
e 64 98
e 64 99
e 65 66
e 65 67
e 65 71
e 65 73
e 65 74
e 65 75
e 65 76
e 65 78
e 65 79
e 65 80
e 65 82
e 65 83
e 65 84
e 65 85
e 65 87
e 65 91
e 65 92
e 65 93
e 65 98
e 65 100
e 66 73
e 66 77
e 66 83
e 66 91
e 66 93
e 66 99
e 67 75
e 67 77
e 67 79
e 67 82
e 67 99
e 67 100
e 68 77
e 68 86
e 68 89
e 68 90
e 68 95
e 68 96
e 68 99
e 69 70
e 69 77
e 69 81
e 69 86
e 69 89
e 69 90
e 69 95
e 69 96
e 69 99
e 70 77
e 70 81
e 70 86
e 70 89
e 70 90
e 70 95
e 70 96
e 70 99
e 71 74
e 71 75
e 71 76
e 71 77
e 71 78
e 71 79
e 71 80
e 71 82
e 71 84
e 71 85
e 71 87
e 71 99
e 71 100
e 72 77
e 72 89
e 72 99
e 73 77
e 73 82
e 73 83
e 73 91
e 73 93
e 73 99
e 74 75
e 74 76
e 74 77
e 74 78
e 74 79
e 74 80
e 74 82
e 74 84
e 74 85
e 74 87
e 74 99
e 74 100
e 75 76
e 75 78
e 75 79
e 75 80
e 75 82
e 75 84
e 75 85
e 75 87
e 75 92
e 75 98
e 75 100
e 76 78
e 76 79
e 76 80
e 76 82
e 76 84
e 76 85
e 76 87
e 76 99
e 76 100
e 77 81
e 77 83
e 77 84
e 77 85
e 77 86
e 77 88
e 77 89
e 77 90
e 77 91
e 77 93
e 77 94
e 77 95
e 77 96
e 77 97
e 77 99
e 78 79
e 78 80
e 78 82
e 78 84
e 78 85
e 78 87
e 78 92
e 78 98
e 78 99
e 78 100
e 79 80
e 79 82
e 79 84
e 79 85
e 79 87
e 79 89
e 79 92
e 79 98
e 79 100
e 80 82
e 80 84
e 80 85
e 80 87
e 80 92
e 80 98
e 80 99
e 80 100
e 81 86
e 81 89
e 81 90
e 81 95
e 81 96
e 81 99
e 82 83
e 82 84
e 82 85
e 82 87
e 82 91
e 82 92
e 82 98
e 82 100
e 83 91
e 83 93
e 83 99
e 84 85
e 84 87
e 84 99
e 84 100
e 85 87
e 85 99
e 85 100
e 86 89
e 86 90
e 86 95
e 86 96
e 86 99
e 87 92
e 87 98
e 87 99
e 87 100
e 88 89
e 88 90
e 88 95
e 88 97
e 88 99
e 89 90
e 89 94
e 89 95
e 89 96
e 89 97
e 89 99
e 89 100
e 90 94
e 90 95
e 90 96
e 90 97
e 90 99
e 91 93
e 91 99
e 92 98
e 92 99
e 92 100
e 93 99
e 94 95
e 94 99
e 95 96
e 95 97
e 95 99
e 96 99
e 97 99
e 98 99
e 98 100
